units           metal              # Use metal units (Angstroms, eV, ps)
atom_style      atomic             # Atoms have a single type and position
lattice fcc 3.567
boundary p p p

region          simbox block 0 2 0 2 0 2
create_box      1 simbox
create_atoms    1 region simbox
mass 1 12.011

velocity        all create 300.0 12345 dist gaussian # Set initial velocities at 300 K

timestep        0.001 # 1 fs
fix 1 all nve
fix 2 all langevin 1.0 1.0 10.0 12345
thermo_style custom step temp pe ke etotal press
thermo 1
run 100
